Results/Experiment 1 Results/New Benchmark/RES_40/output_p1_0.00_p2_0.00_n_40_08.txt
solutions: 5184 nodes: 9418  modelTime: 113  solveTime: 133  totalTime: 252  modelSize: 7389  readTime: 6 matchingSize: 20
